Route #1: 35 33 43 7 51 27
Route #2: 44 10 5 8 29 37 47
Route #3: 6 1 30 18 20 42
Route #4: 2 48 38 9 16 32 34 19 15 49 46
Route #5: 40 3 31 24 28 11 21 39 14 45 4
Route #6: 23 12 50 17 22 26 13
Route #7: 36 25 41
Cost 754